NAME : tsp_276_sol.txt
COMMENT : OR-Tools Guided Local Search
TYPE : TOUR
DIMENSION : 174
COST : 9872
STATUS : ROUTING_SUCCESS
GAP : 0.00% (Reference Solution)
TOUR_SECTION
1
53
102
103
18
81
120
17
55
29
134
97
168
129
157
151
3
159
141
43
121
59
85
166
123
143
63
72
46
71
58
14
139
67
51
112
163
99
22
62
78
30
147
32
148
124
82
42
60
162
155
170
35
156
150
107
23
108
77
146
27
24
13
86
80
56
167
73
75
110
91
98
137
28
54
61
89
31
135
106
130
74
20
125
169
38
104
100
57
50
154
40
83
126
16
109
93
171
15
68
9
140
149
152
96
45
33
92
132
160
19
122
118
111
119
8
25
36
70
88
41
90
144
52
4
174
138
114
49
12
37
117
94
69
101
2
34
26
39
48
5
105
113
76
95
127
173
172
87
153
136
142
64
131
116
158
66
165
21
47
133
79
44
65
6
115
145
161
10
84
7
164
128
11
-1
